
-1.0
-0.9
-0.8
-0.8
-0.8
-0.7
-0.7
-0.7
-0.6
-0.6
-0.6
-0.4
-0.4
-0.3
-0.3
-0.3
-0.3
-0.3
-0.3
-0.3
-0.3
-0.3
-0.3
-0.3
-0.3
-0.3
-0.3
-0.3
-0.3
-0.75
-0.75
-0.7
-0.7
-0.65
-0.65
-0.65
-0.6
-0.6
-0.6
-0.5
-0.45
-0.4
-0.35
-0.35
-0.25
-0.25
-0.25
-0.25
-0.25
-0.25
-0.25
-0.25
-0.25
-0.25
-0.25
-0.25
-0.25
-0.25
-0.25
-0.25
-0.25
-0.25
-0.25
-1.0
-0.95
-0.9
-0.9
-0.85
-0.85
-0.8
-0.8
-0.8
-0.8
-0.7
-0.65
-0.6
-0.55
-0.5
-0.45
-0.45
-0.25
-0.25
-0.25
-0.25
-0.25
-0.25